\ LP format - for model browsing. Use MPS format to capture full model detail.
Minimize
  0 B18(0) + 0 B19(0) + 0 B20(0) + 0 B27(0) + 0 B28(0) + 0 B29(0) + 0 B36(0)
   + 0 B37(0) + 0 B38(0) + 0 B45(0) + 0 B46(0) + 0 B47(0) + 0 B48(0)
   + 0 B49(0) + 0 B50(0) + 0 B54(0) + 0 B55(0) + 0 B56(0) + 0 B57(0)
   + 0 B58(0) + 0 B59(0) + 0 B63(0) + 0 B64(0) + 0 B65(0) + 0 B66(0)
   + 0 B67(0) + 0 B68(0) + 0 B72(0) + 0 B73(0) + 0 B74(0) + 0 B75(0)
   + 0 B76(0) + 0 B77(0) + 0 B78(0) + 0 B79(0) + 0 B80(0) + 0 B81(0)
   + 0 B82(0) + 0 B83(0) + 0 B84(0) + 0 B85(0) + 0 B86(0) + 0 B87(0)
   + 0 B88(0) + 0 B89(0) + 0 B90(0) + 0 B91(0) + 0 B92(0) + 0 B93(0)
   + 0 B94(0) + 0 B95(0) + 0 B96(0) + 0 B97(0) + 0 B98(0) + I117(1)
Subject To
 c0: B0(14) + B1(18) = 1
 c1: B2(14) + B3(18) = 1
 c2: B4(16) + B5(13) = 1
 c3: B6(13) + B7(13) = 1
 c4: B8(14) + B9(19) = 1
 c5: B10(18) + B11(11) = 1
 c6: B12(14) + B13(16) = 1
 c7: B14(18) + B15(13) = 1
 c8: B16(15) + B17(11) = 1
 c9: - 1e+09 B0(14) + I99(14) <= 0
 c10: - 1e+09 B1(18) + I100(18) <= 0
 c11: - 1e+09 B2(14) + I101(16) <= 0
 c12: - 1e+09 B3(18) + I102(20) <= 0
 c13: - 1e+09 B4(16) + I103(18) <= 0
 c14: - 1e+09 B5(13) + I104(16) <= 0
 c15: - 1e+09 B6(13) + I105(13) <= 0
 c16: - 1e+09 B7(13) + I106(13) <= 0
 c17: - 1e+09 B8(14) + I107(15) <= 0
 c18: - 1e+09 B9(19) + I108(21) <= 0
 c19: - 1e+09 B10(18) + I109(20) <= 0
 c20: - 1e+09 B11(11) + I110(14) <= 0
 c21: - 1e+09 B12(14) + I111(15) <= 0
 c22: - 1e+09 B13(16) + I112(17) <= 0
 c23: - 1e+09 B14(18) + I113(20) <= 0
 c24: - 1e+09 B15(13) + I114(16) <= 0
 c25: - 1e+09 B16(15) + I115(19) <= 0
 c26: - 1e+09 B17(11) + I116(15) <= 0
 c27: - 17 B0(14) - 25 B1(18) - I99(14) - I100(18) + I101(16) + I102(20)
   >= 0
 c28: - 1.000000017e+09 B0(14) - 25 B1(18) - 1e+09 B2(14) - I99(14)
   - I100(18) + I101(16) + I102(20) >= -1.999999993e+09
 c29: - 17 B0(14) - 1.000000025e+09 B1(18) - 1e+09 B3(18) - I99(14)
   - I100(18) + I101(16) + I102(20) >= -1.999999995e+09
 c30: - 40 B2(14) - 30 B3(18) - I101(16) - I102(20) + I103(18) + I104(16)
   >= 0
 c31: - 40 B2(14) - 1.00000003e+09 B3(18) - 1e+09 B4(16) - I101(16)
   - I102(20) + I103(18) + I104(16) >= -1.999999994e+09
 c32: - 30 B6(13) - 50 B7(13) - I105(13) - I106(13) + I107(15) + I108(21)
   >= 0
 c33: - 1.00000003e+09 B6(13) - 50 B7(13) - 1e+09 B8(14) - I105(13)
   - I106(13) + I107(15) + I108(21) >= -1.999999993e+09
 c34: - 50 B8(14) - 60 B9(19) - I107(15) - I108(21) + I109(20) + I110(14)
   >= 0
 c35: - 50 B8(14) - 1.00000006e+09 B9(19) - 1e+09 B10(18) - I107(15)
   - I108(21) + I109(20) + I110(14) >= -1.999999995e+09
 c36: - 50 B12(14) - 60 B13(16) - I111(15) - I112(17) + I113(20) + I114(16)
   >= 0
 c37: - 50 B12(14) - 1.00000006e+09 B13(16) - 1e+09 B14(18) - I111(15)
   - I112(17) + I113(20) + I114(16) >= -1.999999993e+09
 c38: - 70 B14(18) - 80 B15(13) - I113(20) - I114(16) + I115(19) + I116(15)
   >= 0
 c39: - 1.00000007e+09 B14(18) - 80 B15(13) - 1e+09 B16(15) - I113(20)
   - I114(16) + I115(19) + I116(15) >= -1.999999994e+09
 c40: - 70 B14(18) - 1.00000008e+09 B15(13) - 1e+09 B17(11) - I113(20)
   - I114(16) + I115(19) + I116(15) >= -1.999999993e+09
 c41: - 1e+09 B0(14) - 1e+09 B6(13) - 1e+09 B21(2) + I99(14) - I105(13)
   >= -2.999999964e+09
 c42: - 1e+09 B0(14) - 1e+09 B6(13) + 1e+09 B21(2) - I99(14) + I105(13)
   >= -1.999999978e+09
 c43: - 1e+09 B0(14) - 1e+09 B8(14) - 1e+09 B22(4) + I99(14) - I107(15)
   >= -2.999999945e+09
 c44: - 1e+09 B0(14) - 1e+09 B8(14) + 1e+09 B22(4) - I99(14) + I107(15)
   >= -1.999999979e+09
 c45: - 1e+09 B1(18) - 1e+09 B9(19) - 1e+09 B22(4) + I100(18) - I108(21)
   >= -2.999999934e+09
 c46: - 1e+09 B1(18) - 1e+09 B9(19) + 1e+09 B22(4) - I100(18) + I108(21)
   >= -1.999999969e+09
 c47: - 1e+09 B1(18) - 1e+09 B10(18) - 1e+09 B23(2) + I100(18) - I109(20)
   >= -2.999999924e+09
 c48: - 1e+09 B1(18) - 1e+09 B10(18) + 1e+09 B23(2) - I100(18) + I109(20)
   >= -1.999999969e+09
 c49: - 1e+09 B0(14) - 1e+09 B12(14) - 1e+09 B24(4) + I99(14) - I111(15)
   >= -2.999999945e+09
 c50: - 1e+09 B0(14) - 1e+09 B12(14) + 1e+09 B24(4) - I99(14) + I111(15)
   >= -1.999999978e+09
 c51: - 1e+09 B1(18) - 1e+09 B13(16) - 1e+09 B24(4) + I100(18) - I112(17)
   >= -2.999999933e+09
 c52: - 1e+09 B1(18) - 1e+09 B13(16) + 1e+09 B24(4) - I100(18) + I112(17)
   >= -1.999999969e+09
 c53: - 1e+09 B1(18) - 1e+09 B14(18) - 1e+09 B25(2) + I100(18) - I113(20)
   >= -2.999999925e+09
 c54: - 1e+09 B1(18) - 1e+09 B14(18) + 1e+09 B25(2) - I100(18) + I113(20)
   >= -1.99999997e+09
 c55: - 1e+09 B1(18) - 1e+09 B16(15) - 1e+09 B26(2) + I100(18) - I115(19)
   >= -2.999999903e+09
 c56: - 1e+09 B1(18) - 1e+09 B16(15) + 1e+09 B26(2) - I100(18) + I115(19)
   >= -1.999999968e+09
 c57: - 1e+09 B2(14) - 1e+09 B6(13) - 1e+09 B30(2) + I101(16) - I105(13)
   >= -2.999999964e+09
 c58: - 1e+09 B2(14) - 1e+09 B6(13) + 1e+09 B30(2) - I101(16) + I105(13)
   >= -1.999999955e+09
 c59: - 1e+09 B2(14) - 1e+09 B8(14) - 1e+09 B31(4) + I101(16) - I107(15)
   >= -2.999999944e+09
 c60: - 1e+09 B2(14) - 1e+09 B8(14) + 1e+09 B31(4) - I101(16) + I107(15)
   >= -1.999999954e+09
 c61: - 1e+09 B3(18) - 1e+09 B9(19) - 1e+09 B31(4) + I102(20) - I108(21)
   >= -2.999999934e+09
 c62: - 1e+09 B3(18) - 1e+09 B9(19) + 1e+09 B31(4) - I102(20) + I108(21)
   >= -1.999999965e+09
 c63: - 1e+09 B3(18) - 1e+09 B10(18) - 1e+09 B32(2) + I102(20) - I109(20)
   >= -2.999999926e+09
 c64: - 1e+09 B3(18) - 1e+09 B10(18) + 1e+09 B32(2) - I102(20) + I109(20)
   >= -1.999999966e+09
 c65: - 1e+09 B2(14) - 1e+09 B12(14) - 1e+09 B33(4) + I101(16) - I111(15)
   >= -2.999999944e+09
 c66: - 1e+09 B2(14) - 1e+09 B12(14) + 1e+09 B33(4) - I101(16) + I111(15)
   >= -1.999999954e+09
 c67: - 1e+09 B3(18) - 1e+09 B13(16) - 1e+09 B33(4) + I102(20) - I112(17)
   >= -2.999999934e+09
 c68: - 1e+09 B3(18) - 1e+09 B13(16) + 1e+09 B33(4) - I102(20) + I112(17)
   >= -1.999999963e+09
 c69: - 1e+09 B3(18) - 1e+09 B14(18) - 1e+09 B34(2) + I102(20) - I113(20)
   >= -2.999999925e+09
 c70: - 1e+09 B3(18) - 1e+09 B14(18) + 1e+09 B34(2) - I102(20) + I113(20)
   >= -1.999999964e+09
 c71: - 1e+09 B3(18) - 1e+09 B16(15) - 1e+09 B35(2) + I102(20) - I115(19)
   >= -2.999999905e+09
 c72: - 1e+09 B3(18) - 1e+09 B16(15) + 1e+09 B35(2) - I102(20) + I115(19)
   >= -1.999999966e+09
 c73: - 1e+09 B5(13) - 1e+09 B7(13) - 1e+09 B39(2) + I104(16) - I106(13)
   >= -2.999999945e+09
 c74: - 1e+09 B5(13) - 1e+09 B7(13) + 1e+09 B39(2) - I104(16) + I106(13)
   >= -1.999999933e+09
 c75: - 1e+09 B4(16) - 1e+09 B9(19) - 1e+09 B40(2) + I103(18) - I108(21)
   >= -2.999999934e+09
 c76: - 1e+09 B4(16) - 1e+09 B9(19) + 1e+09 B40(2) - I103(18) + I108(21)
   >= -1.999999944e+09
 c77: - 1e+09 B4(16) - 1e+09 B10(18) - 1e+09 B41(4) + I103(18) - I109(20)
   >= -2.999999924e+09
 c78: - 1e+09 B4(16) - 1e+09 B10(18) + 1e+09 B41(4) - I103(18) + I109(20)
   >= -1.999999944e+09
 c79: - 1e+09 B5(13) - 1e+09 B11(11) - 1e+09 B41(4) + I104(16) - I110(14)
   >= -2.999999934e+09
 c80: - 1e+09 B5(13) - 1e+09 B11(11) + 1e+09 B41(4) - I104(16) + I110(14)
   >= -1.999999935e+09
 c81: - 1e+09 B4(16) - 1e+09 B13(16) - 1e+09 B42(2) + I103(18) - I112(17)
   >= -2.999999936e+09
 c82: - 1e+09 B4(16) - 1e+09 B13(16) + 1e+09 B42(2) - I103(18) + I112(17)
   >= -1.999999943e+09
 c83: - 1e+09 B4(16) - 1e+09 B14(18) - 1e+09 B43(4) + I103(18) - I113(20)
   >= -2.999999924e+09
 c84: - 1e+09 B4(16) - 1e+09 B14(18) + 1e+09 B43(4) - I103(18) + I113(20)
   >= -1.999999945e+09
 c85: - 1e+09 B5(13) - 1e+09 B15(13) - 1e+09 B43(4) + I104(16) - I114(16)
   >= -2.999999913e+09
 c86: - 1e+09 B5(13) - 1e+09 B15(13) + 1e+09 B43(4) - I104(16) + I114(16)
   >= -1.999999934e+09
 c87: - 1e+09 B4(16) - 1e+09 B16(15) - 1e+09 B44(4) + I103(18) - I115(19)
   >= -2.999999905e+09
 c88: - 1e+09 B4(16) - 1e+09 B16(15) + 1e+09 B44(4) - I103(18) + I115(19)
   >= -1.999999943e+09
 c89: - 1e+09 B5(13) - 1e+09 B17(11) - 1e+09 B44(4) + I104(16) - I116(15)
   >= -2.999999895e+09
 c90: - 1e+09 B5(13) - 1e+09 B17(11) + 1e+09 B44(4) - I104(16) + I116(15)
   >= -1.999999936e+09
 c91: - 1e+09 B6(13) - 1e+09 B12(14) - 1e+09 B51(2) + I105(13) - I111(15)
   >= -2.999999945e+09
 c92: - 1e+09 B6(13) - 1e+09 B12(14) + 1e+09 B51(2) - I105(13) + I111(15)
   >= -1.999999966e+09
 c93: - 1e+09 B7(13) - 1e+09 B15(13) - 1e+09 B52(2) + I106(13) - I114(16)
   >= -2.999999916e+09
 c94: - 1e+09 B7(13) - 1e+09 B15(13) + 1e+09 B52(2) - I106(13) + I114(16)
   >= -1.999999946e+09
 c95: - 1e+09 B7(13) - 1e+09 B17(11) - 1e+09 B53(2) + I106(13) - I116(15)
   >= -2.999999894e+09
 c96: - 1e+09 B7(13) - 1e+09 B17(11) + 1e+09 B53(2) - I106(13) + I116(15)
   >= -1.999999944e+09
 c97: - 1e+09 B8(14) - 1e+09 B12(14) - 1e+09 B60(4) + I107(15) - I111(15)
   >= -2.999999945e+09
 c98: - 1e+09 B8(14) - 1e+09 B12(14) + 1e+09 B60(4) - I107(15) + I111(15)
   >= -1.999999946e+09
 c99: - 1e+09 B9(19) - 1e+09 B13(16) - 1e+09 B60(4) + I108(21) - I112(17)
   >= -2.999999935e+09
 c100: - 1e+09 B9(19) - 1e+09 B13(16) + 1e+09 B60(4) - I108(21) + I112(17)
   >= -1.999999934e+09
 c101: - 1e+09 B9(19) - 1e+09 B14(18) - 1e+09 B61(2) + I108(21) - I113(20)
   >= -2.999999924e+09
 c102: - 1e+09 B9(19) - 1e+09 B14(18) + 1e+09 B61(2) - I108(21) + I113(20)
   >= -1.999999935e+09
 c103: - 1e+09 B9(19) - 1e+09 B16(15) - 1e+09 B62(2) + I108(21) - I115(19)
   >= -2.999999903e+09
 c104: - 1e+09 B9(19) - 1e+09 B16(15) + 1e+09 B62(2) - I108(21) + I115(19)
   >= -1.999999934e+09
 c105: - 1e+09 B10(18) - 1e+09 B13(16) - 1e+09 B69(2) + I109(20) - I112(17)
   >= -2.999999935e+09
 c106: - 1e+09 B10(18) - 1e+09 B13(16) + 1e+09 B69(2) - I109(20) + I112(17)
   >= -1.999999924e+09
 c107: - 1e+09 B10(18) - 1e+09 B14(18) - 1e+09 B70(4) + I109(20) - I113(20)
   >= -2.999999925e+09
 c108: - 1e+09 B10(18) - 1e+09 B14(18) + 1e+09 B70(4) - I109(20) + I113(20)
   >= -1.999999926e+09
 c109: - 1e+09 B11(11) - 1e+09 B15(13) - 1e+09 B70(4) + I110(14) - I114(16)
   >= -2.999999914e+09
 c110: - 1e+09 B11(11) - 1e+09 B15(13) + 1e+09 B70(4) - I110(14) + I114(16)
   >= -1.999999935e+09
 c111: - 1e+09 B10(18) - 1e+09 B16(15) - 1e+09 B71(4) + I109(20) - I115(19)
   >= -2.999999905e+09
 c112: - 1e+09 B10(18) - 1e+09 B16(15) + 1e+09 B71(4) - I109(20) + I115(19)
   >= -1.999999924e+09
 c113: - 1e+09 B11(11) - 1e+09 B17(11) - 1e+09 B71(4) + I110(14) - I116(15)
   >= -2.999999894e+09
 c114: - 1e+09 B11(11) - 1e+09 B17(11) + 1e+09 B71(4) - I110(14) + I116(15)
   >= -1.999999935e+09
 c115: - 11 B0(14) + I99(14) >= 0
 c116: I99(14) >= 0
 c117: - 11 B1(18) + I100(18) >= 0
 c118: I100(18) >= 0
 c119: - 11 B2(14) + I101(16) >= 0
 c120: I101(16) >= 0
 c121: - 11 B3(18) + I102(20) >= 0
 c122: I102(20) >= 0
 c123: - 11 B4(16) + I103(18) >= 0
 c124: I103(18) >= 0
 c125: - 11 B5(13) + I104(16) >= 0
 c126: I104(16) >= 0
 c127: - 8 B6(13) + I105(13) >= 0
 c128: I105(13) >= 0
 c129: - 8 B7(13) + I106(13) >= 0
 c130: I106(13) >= 0
 c131: - 8 B8(14) + I107(15) >= 0
 c132: I107(15) >= 0
 c133: - 8 B9(19) + I108(21) >= 0
 c134: I108(21) >= 0
 c135: - 8 B10(18) + I109(20) >= 0
 c136: I109(20) >= 0
 c137: - 8 B11(11) + I110(14) >= 0
 c138: I110(14) >= 0
 c139: I111(15) >= 0
 c140: I111(15) >= 0
 c141: I112(17) >= 0
 c142: I112(17) >= 0
 c143: I113(20) >= 0
 c144: I113(20) >= 0
 c145: I114(16) >= 0
 c146: I114(16) >= 0
 c147: I115(19) >= 0
 c148: I115(19) >= 0
 c149: I116(15) >= 0
 c150: I116(15) >= 0
 c151: 17 B0(14) + I99(14) - 1e+09 B118(2) >= -9.99999954e+08
 c152: 17 B0(14) + I99(14) - 1e+09 B118(2) <= 46
 c153: 25 B1(18) + I100(18) - 1e+09 B119(2) >= -9.99999954e+08
 c154: 25 B1(18) + I100(18) - 1e+09 B119(2) <= 46
 c155: 40 B2(14) + I101(16) - 1e+09 B120(2) >= -9.99999954e+08
 c156: 40 B2(14) + I101(16) - 1e+09 B120(2) <= 46
 c157: 30 B3(18) + I102(20) - 1e+09 B121(2) >= -9.99999954e+08
 c158: 30 B3(18) + I102(20) - 1e+09 B121(2) <= 46
 c159: 50 B4(16) + I103(18) - 1e+09 B122(4) >= -9.99999954e+08
 c160: 50 B4(16) + I103(18) - 1e+09 B122(4) <= 46
 c161: 60 B5(13) + I104(16) - 1e+09 B123(4) >= -9.99999954e+08
 c162: 60 B5(13) + I104(16) - 1e+09 B123(4) <= 46
 c163: 30 B6(13) + I105(13) - 1e+09 B124(2) >= -9.99999959e+08
 c164: 30 B6(13) + I105(13) - 1e+09 B124(2) <= 41
 c165: 50 B7(13) + I106(13) - 1e+09 B125(2) >= -9.99999959e+08
 c166: 50 B7(13) + I106(13) - 1e+09 B125(2) <= 41
 c167: 50 B8(14) + I107(15) - 1e+09 B126(2) >= -9.99999959e+08
 c168: 50 B8(14) + I107(15) - 1e+09 B126(2) <= 41
 c169: 60 B9(19) + I108(21) - 1e+09 B127(2) >= -9.99999959e+08
 c170: 60 B9(19) + I108(21) - 1e+09 B127(2) <= 41
 c171: 70 B10(18) + I109(20) - 1e+09 B128(4) >= -9.99999959e+08
 c172: 70 B10(18) + I109(20) - 1e+09 B128(4) <= 41
 c173: 60 B11(11) + I110(14) - 1e+09 B129(4) >= -9.99999959e+08
 c174: 60 B11(11) + I110(14) - 1e+09 B129(4) <= 41
 c175: 50 B12(14) + I111(15) - 1e+09 B130(2) >= -9.99999977e+08
 c176: 50 B12(14) + I111(15) - 1e+09 B130(2) <= 23
 c177: 60 B13(16) + I112(17) - 1e+09 B131(2) >= -9.99999977e+08
 c178: 60 B13(16) + I112(17) - 1e+09 B131(2) <= 23
 c179: 70 B14(18) + I113(20) - 1e+09 B132(2) >= -9.99999977e+08
 c180: 70 B14(18) + I113(20) - 1e+09 B132(2) <= 23
 c181: 80 B15(13) + I114(16) - 1e+09 B133(2) >= -9.99999977e+08
 c182: 80 B15(13) + I114(16) - 1e+09 B133(2) <= 23
 c183: 90 B16(15) + I115(19) - 1e+09 B134(4) >= -9.99999977e+08
 c184: 90 B16(15) + I115(19) - 1e+09 B134(4) <= 23
 c185: 100 B17(11) + I116(15) - 1e+09 B135(4) >= -9.99999977e+08
 c186: 100 B17(11) + I116(15) - 1e+09 B135(4) <= 23
 qc0: I117(1) - 4 B122(4) - 14 B123(4) - 29 B128(4) - 19 B129(4)
   - 67 B134(4) - 77 B135(4) + [ - I103(18) * B122(4) - I104(16) * B123(4)
   - I109(20) * B128(4) - I110(14) * B129(4) - I115(19) * B134(4)
   - I116(15) * B135(4) ] >= 0
Bounds
Binaries
 B0(14) B1(18) B2(14) B3(18) B4(16) B5(13) B6(13) B7(13) B8(14) B9(19)
 B10(18) B11(11) B12(14) B13(16) B14(18) B15(13) B16(15) B17(11) B18(0)
 B19(0) B20(0) B21(2) B22(4) B23(2) B24(4) B25(2) B26(2) B27(0) B28(0)
 B29(0) B30(2) B31(4) B32(2) B33(4) B34(2) B35(2) B36(0) B37(0) B38(0)
 B39(2) B40(2) B41(4) B42(2) B43(4) B44(4) B45(0) B46(0) B47(0) B48(0)
 B49(0) B50(0) B51(2) B52(2) B53(2) B54(0) B55(0) B56(0) B57(0) B58(0)
 B59(0) B60(4) B61(2) B62(2) B63(0) B64(0) B65(0) B66(0) B67(0) B68(0)
 B69(2) B70(4) B71(4) B72(0) B73(0) B74(0) B75(0) B76(0) B77(0) B78(0)
 B79(0) B80(0) B81(0) B82(0) B83(0) B84(0) B85(0) B86(0) B87(0) B88(0)
 B89(0) B90(0) B91(0) B92(0) B93(0) B94(0) B95(0) B96(0) B97(0) B98(0)
 B118(2) B119(2) B120(2) B121(2) B122(4) B123(4) B124(2) B125(2) B126(2)
 B127(2) B128(4) B129(4) B130(2) B131(2) B132(2) B133(2) B134(4) B135(4)
Generals
 I99(14) I100(18) I101(16) I102(20) I103(18) I104(16) I105(13) I106(13)
 I107(15) I108(21) I109(20) I110(14) I111(15) I112(17) I113(20) I114(16)
 I115(19) I116(15) I117(1)
End
